
  20    0


   0  10 2 3 4 5 7 8 9 17 18 19 
   3   3 12 11 6 
  10   3 15 14 13 
   7   2 15 14 
   4   2 13 10 
   3   1 10 
  10   1 16 
   4   1 12 
   2   1 11 
   4   1 20
   6   1 20
   9   1 20
  10   1 20
   3   1 20
   6   1 20
   9   1 20
   4   1 20
   8   1 20
   4   1 20
   0   0 
